min: c;

c = 3.56282859610297 * u5_t4_h2 + 3.56282859610297 * u5_t7_h2 + 2.9338399674504 * u5_t4_h3 + 2.9338399674504 * u5_t7_h3 + 3.01906897361391 * u5_t1_h4 + 3.01906897361391 * u5_t3_h4 + 3.01906897361391 * u5_t4_h4 + 3.01906897361391 * u5_t7_h4 + 3.4657834523576 * u5_t1_h5 + 3.4657834523576 * u5_t3_h5 + 3.4657834523576 * u5_t4_h5 + 3.4657834523576 * u5_t7_h5 + 3.94135945152952 * u5_t1_h6 + 3.94135945152952 * u5_t3_h6 + 3.94135945152952 * u5_t4_h6 + 3.94135945152952 * u5_t6_h6 + 3.94135945152952 * u5_t7_h6 + 4.02827939713722 * u5_t1_h7 + 4.02827939713722 * u5_t3_h7 + 4.02827939713722 * u5_t4_h7 + 4.02827939713722 * u5_t6_h7 + 5.259208716229 * u5_t1_h8 + 5.259208716229 * u5_t3_h8 + 5.259208716229 * u5_t4_h8 + 5.259208716229 * u5_t6_h8 + 5.17423015243256 * u5_t1_h9 + 5.17423015243256 * u5_t3_h9 + 5.17423015243256 * u5_t4_h9 + 5.17423015243256 * u5_t6_h9 + 5.85443448479517 * u5_t1_h10 + 5.85443448479517 * u5_t3_h10 + 5.85443448479517 * u5_t4_h10 + 5.85443448479517 * u5_t6_h10 + 4.27958852589422 * u5_t1_h11 + 4.27958852589422 * u5_t3_h11 + 4.27958852589422 * u5_t4_h11 + 4.27958852589422 * u5_t6_h11 + 6.33569055348938 * u5_t1_h12 + 6.33569055348938 * u5_t3_h12 + 6.33569055348938 * u5_t4_h12 + 6.33569055348938 * u5_t6_h12 + 4.56019555535156 * u5_t1_h13 + 4.56019555535156 * u5_t3_h13 + 4.56019555535156 * u5_t4_h13 + 4.56019555535156 * u5_t6_h13 + 4.56019555535156 * u5_t8_h13 + 5.353872225678 * u5_t1_h14 + 5.353872225678 * u5_t3_h14 + 5.353872225678 * u5_t4_h14 + 5.353872225678 * u5_t6_h14 + 5.353872225678 * u5_t8_h14 + 6.62533815586947 * u5_t1_h15 + 6.62533815586947 * u5_t3_h15 + 6.62533815586947 * u5_t4_h15 + 6.62533815586947 * u5_t6_h15 + 6.62533815586947 * u5_t8_h15 + 6.62533815586947 * u5_t9_h15 + 6.32352885758841 * u5_t1_h16 + 6.32352885758841 * u5_t3_h16 + 6.32352885758841 * u5_t4_h16 + 6.32352885758841 * u5_t5_h16 + 6.32352885758841 * u5_t6_h16 + 6.32352885758841 * u5_t8_h16 + 6.32352885758841 * u5_t9_h16 + 6.05810212282587 * u5_t1_h17 + 6.05810212282587 * u5_t5_h17 + 6.05810212282587 * u5_t6_h17 + 6.05810212282587 * u5_t8_h17 + 6.05810212282587 * u5_t9_h17 + 6.05810212282587 * u5_t10_h17 + 6.38398539283024 * u5_t1_h18 + 6.38398539283024 * u5_t2_h18 + 6.38398539283024 * u5_t5_h18 + 6.38398539283024 * u5_t6_h18 + 6.38398539283024 * u5_t9_h18 + 6.38398539283024 * u5_t10_h18 + 5.84587470880221 * u5_t1_h19 + 5.84587470880221 * u5_t2_h19 + 5.84587470880221 * u5_t5_h19 + 5.84587470880221 * u5_t9_h19 + 5.84587470880221 * u5_t10_h19 + 5.12744747603087 * u5_t1_h20 + 5.12744747603087 * u5_t2_h20 + 5.12744747603087 * u5_t5_h20 + 5.12744747603087 * u5_t9_h20 + 5.12744747603087 * u5_t10_h20 + 5.00685763661534 * u5_t2_h21 + 5.00685763661534 * u5_t5_h21 + 5.00685763661534 * u5_t9_h21 + 5.00685763661534 * u5_t10_h21 + 5.09822355409956 * u5_t2_h22 + 5.09822355409956 * u5_t5_h22 + 5.09822355409956 * u5_t9_h22 + 5.09822355409956 * u5_t10_h22 + 5.56716988184045 * u5_t5_h23 + 5.56716988184045 * u5_t9_h23 + 5.56716988184045 * u5_t10_h23;
0 <= u5_t1_h4 <= 1;
0 <= u5_t1_h5 <= 1;
0 <= u5_t1_h6 <= 1;
0 <= u5_t1_h7 <= 1;
0 <= u5_t1_h8 <= 1;
0 <= u5_t1_h9 <= 1;
0 <= u5_t1_h10 <= 1;
0 <= u5_t1_h11 <= 1;
0 <= u5_t1_h12 <= 1;
0 <= u5_t1_h13 <= 1;
0 <= u5_t1_h14 <= 1;
0 <= u5_t1_h15 <= 1;
0 <= u5_t1_h16 <= 1;
0 <= u5_t1_h17 <= 1;
0 <= u5_t1_h18 <= 1;
0 <= u5_t1_h19 <= 1;
0 <= u5_t1_h20 <= 1;
u5_t1_h4 + u5_t1_h5 + u5_t1_h6 + u5_t1_h7 + u5_t1_h8 + u5_t1_h9 + u5_t1_h10 + u5_t1_h11 + u5_t1_h12 + u5_t1_h13 + u5_t1_h14 + u5_t1_h15 + u5_t1_h16 + u5_t1_h17 + u5_t1_h18 + u5_t1_h19 + u5_t1_h20 = 1;
0 <= u5_t2_h18 <= 1;
0 <= u5_t2_h19 <= 1;
0 <= u5_t2_h20 <= 1;
0 <= u5_t2_h21 <= 1;
0 <= u5_t2_h22 <= 1;
u5_t2_h18 + u5_t2_h19 + u5_t2_h20 + u5_t2_h21 + u5_t2_h22 = 3;
0 <= u5_t3_h4 <= 1;
0 <= u5_t3_h5 <= 1;
0 <= u5_t3_h6 <= 1;
0 <= u5_t3_h7 <= 1;
0 <= u5_t3_h8 <= 1;
0 <= u5_t3_h9 <= 1;
0 <= u5_t3_h10 <= 1;
0 <= u5_t3_h11 <= 1;
0 <= u5_t3_h12 <= 1;
0 <= u5_t3_h13 <= 1;
0 <= u5_t3_h14 <= 1;
0 <= u5_t3_h15 <= 1;
0 <= u5_t3_h16 <= 1;
u5_t3_h4 + u5_t3_h5 + u5_t3_h6 + u5_t3_h7 + u5_t3_h8 + u5_t3_h9 + u5_t3_h10 + u5_t3_h11 + u5_t3_h12 + u5_t3_h13 + u5_t3_h14 + u5_t3_h15 + u5_t3_h16 = 1;
0 <= u5_t4_h2 <= 1;
0 <= u5_t4_h3 <= 1;
0 <= u5_t4_h4 <= 1;
0 <= u5_t4_h5 <= 1;
0 <= u5_t4_h6 <= 1;
0 <= u5_t4_h7 <= 1;
0 <= u5_t4_h8 <= 1;
0 <= u5_t4_h9 <= 1;
0 <= u5_t4_h10 <= 1;
0 <= u5_t4_h11 <= 1;
0 <= u5_t4_h12 <= 1;
0 <= u5_t4_h13 <= 1;
0 <= u5_t4_h14 <= 1;
0 <= u5_t4_h15 <= 1;
0 <= u5_t4_h16 <= 1;
u5_t4_h2 + u5_t4_h3 + u5_t4_h4 + u5_t4_h5 + u5_t4_h6 + u5_t4_h7 + u5_t4_h8 + u5_t4_h9 + u5_t4_h10 + u5_t4_h11 + u5_t4_h12 + u5_t4_h13 + u5_t4_h14 + u5_t4_h15 + u5_t4_h16 = 3;
0 <= u5_t5_h16 <= 1;
0 <= u5_t5_h17 <= 1;
0 <= u5_t5_h18 <= 1;
0 <= u5_t5_h19 <= 1;
0 <= u5_t5_h20 <= 1;
0 <= u5_t5_h21 <= 1;
0 <= u5_t5_h22 <= 1;
0 <= u5_t5_h23 <= 1;
u5_t5_h16 + u5_t5_h17 + u5_t5_h18 + u5_t5_h19 + u5_t5_h20 + u5_t5_h21 + u5_t5_h22 + u5_t5_h23 = 2;
0 <= u5_t6_h6 <= 1;
0 <= u5_t6_h7 <= 1;
0 <= u5_t6_h8 <= 1;
0 <= u5_t6_h9 <= 1;
0 <= u5_t6_h10 <= 1;
0 <= u5_t6_h11 <= 1;
0 <= u5_t6_h12 <= 1;
0 <= u5_t6_h13 <= 1;
0 <= u5_t6_h14 <= 1;
0 <= u5_t6_h15 <= 1;
0 <= u5_t6_h16 <= 1;
0 <= u5_t6_h17 <= 1;
0 <= u5_t6_h18 <= 1;
u5_t6_h6 + u5_t6_h7 + u5_t6_h8 + u5_t6_h9 + u5_t6_h10 + u5_t6_h11 + u5_t6_h12 + u5_t6_h13 + u5_t6_h14 + u5_t6_h15 + u5_t6_h16 + u5_t6_h17 + u5_t6_h18 = 2;
0 <= u5_t7_h2 <= 1;
0 <= u5_t7_h3 <= 1;
0 <= u5_t7_h4 <= 1;
0 <= u5_t7_h5 <= 1;
0 <= u5_t7_h6 <= 1;
u5_t7_h2 + u5_t7_h3 + u5_t7_h4 + u5_t7_h5 + u5_t7_h6 = 1;
0 <= u5_t8_h13 <= 1;
0 <= u5_t8_h14 <= 1;
0 <= u5_t8_h15 <= 1;
0 <= u5_t8_h16 <= 1;
0 <= u5_t8_h17 <= 1;
u5_t8_h13 + u5_t8_h14 + u5_t8_h15 + u5_t8_h16 + u5_t8_h17 = 3;
0 <= u5_t9_h15 <= 1;
0 <= u5_t9_h16 <= 1;
0 <= u5_t9_h17 <= 1;
0 <= u5_t9_h18 <= 1;
0 <= u5_t9_h19 <= 1;
0 <= u5_t9_h20 <= 1;
0 <= u5_t9_h21 <= 1;
0 <= u5_t9_h22 <= 1;
0 <= u5_t9_h23 <= 1;
u5_t9_h15 + u5_t9_h16 + u5_t9_h17 + u5_t9_h18 + u5_t9_h19 + u5_t9_h20 + u5_t9_h21 + u5_t9_h22 + u5_t9_h23 = 1;
0 <= u5_t10_h17 <= 1;
0 <= u5_t10_h18 <= 1;
0 <= u5_t10_h19 <= 1;
0 <= u5_t10_h20 <= 1;
0 <= u5_t10_h21 <= 1;
0 <= u5_t10_h22 <= 1;
0 <= u5_t10_h23 <= 1;
u5_t10_h17 + u5_t10_h18 + u5_t10_h19 + u5_t10_h20 + u5_t10_h21 + u5_t10_h22 + u5_t10_h23 = 1;
